W=7;
H=5;

MAX_TIME=10;
MAX_TRACKS=8;

TARGET=(2,7);

TRAINS=[(5,2,TOP),(3,2,TOP)];
DECOYS=[(5,4,TOP)];

INIT_POS=[
(2,2,DSWITCH_R_L_D),
(2,6,STRAIGHT_RL),
(2,7,STRAIGHT_RL),
(3,2,STRAIGHT_TD),
(3,4,STRAIGHT_TD),
(4,2,STRAIGHT_TD),
(5,2,STRAIGHT_TD),
(5,4,STRAIGHT_TD),
];
TUNNEL_PAIRS=[];

GATES=[];
ACTIVATIONS=[
(3,4,1),
];

DSWITCHES=[
(2,2,1),
];
STATIONS=[];
